CMPL model generation - running

CMPL version: 1.11.0
Authors: Thomas Schleiff, Mike Steglich
Distributed under the GPLv3 

create model instance ...
write model instance ...
CMPL model generation - finished

Solver - running


Welcome to IBM(R) ILOG(R) CPLEX(R) Interactive Optimizer 12.7.1.0
  with Simplex, Mixed Integer & Barrier Optimizers
5725-A06 5725-A29 5724-Y48 5724-Y49 5724-Y54 5724-Y55 5655-Y21
Copyright IBM Corp. 1988, 2017.  All Rights Reserved.

Type 'help' for a list of available commands.
Type 'help' followed by a command name for more
information on commands.

CPLEX> Specified objective sense: MINIMIZE
Selected objective  name:  line[1]
Selected RHS        name:  RHS
Selected bound      name:  BOUND
Problem '/tmp/cmpl.T24308.mps' read.
Read time = 0.10 sec. (8.18 ticks)
CPLEX> CPXPARAM_Read_APIEncoding                        "UTF-8"
Tried aggregator 3 times.
MIP Presolve eliminated 19159 rows and 30553 columns.
MIP Presolve modified 340 coefficients.
Aggregator did 679 substitutions.
Reduced MIP has 2517 rows, 3361 columns, and 9791 nonzeros.
Reduced MIP has 3193 binaries, 0 generals, 0 SOSs, and 0 indicators.
Presolve time = 0.06 sec. (40.62 ticks)
Found incumbent of value 960.157192 after 0.11 sec. (65.64 ticks)
Probing fixed 10 vars, tightened 0 bounds.
Probing time = 0.01 sec. (4.43 ticks)
Tried aggregator 1 time.
MIP Presolve eliminated 0 rows and 10 columns.
MIP Presolve modified 52 coefficients.
Reduced MIP has 2517 rows, 3351 columns, and 9771 nonzeros.
Reduced MIP has 3351 binaries, 0 generals, 0 SOSs, and 0 indicators.
Presolve time = 0.01 sec. (8.27 ticks)
Probing time = 0.01 sec. (2.69 ticks)
Clique table members: 5959.
MIP emphasis: balance optimality and feasibility.
MIP search method: dynamic search.
Parallel mode: none, using 1 thread.
Root relaxation solution time = 0.01 sec. (6.16 ticks)

        Nodes                                         Cuts/
   Node  Left     Objective  IInf  Best Integer    Best Bound    ItCnt     Gap

*     0+    0                          960.1572      -38.3074           103.99%
      0     0      275.1763     9      960.1572      275.1763      244   71.34%
*     0+    0                          293.0309      275.1763             6.09%
*     0+    0                          275.4335      275.1763             0.09%
      0     0        cutoff            275.4335                    244    0.00%
Elapsed time = 0.18 sec. (101.19 ticks, tree = 0.01 MB, solutions = 3)

Root node processing (before b&c):
  Real time             =    0.18 sec. (102.67 ticks)
Sequential b&c:
  Real time             =    0.00 sec. (0.00 ticks)
                          ------------
Total (root+branch&cut) =    0.18 sec. (102.67 ticks)

Solution pool: 3 solutions saved.

MIP - Integer optimal solution:  Objective =  2.7543345600e+02
Solution time =    0.18 sec.  Iterations = 244  Nodes = 0
Deterministic time = 102.77 ticks  (568.37 ticks/sec)

CPLEX> Incumbent solution written to file '/tmp/cmpl.T24308.gsol'.
CPLEX> 
CMPL: Time used for model generation: 1 seconds
CMPL: Time used for solving the model: 0 seconds


Solution written to ASCII file: results/output_generated_conf_0.6/2016-03-07-4/fair-nonlinear.sol

Solver - finished
